0 73 
1 71 
2 69 
3 66 
4 63 
5 63 
6 64 
7 63 
8 62 
9 61 
10 60 
11 60 
12 58 
13 56 
14 56 
15 53 
16 51 
17 50 
18 50 
19 49 
20 47 
21 45 
22 41 
23 43 
24 41 
25 38 
26 38 
27 35 
28 35 
29 31 
30 32 
31 28 
32 29 
33 27 
34 25 
35 25 
36 25 
37 23 
38 23 
39 21 
40 19 
41 18 
42 17 
43 15 
44 17 
45 16 
46 9 
47 7 
48 6 
49 5 
50 6 
51 6 
52 6 
53 4 
54 1 
55 1 
56 0 
57 0 

